* ENCODING=ISO-8859-1
NAME          CPLEX
ROWS
 N  obj1    
 G  c1      
 G  c2      
 G  c3      
 G  c4      
 G  c5      
 G  c6      
 G  c7      
 G  c8      
 G  c9      
 G  c10     
 G  c11     
 G  c12     
 G  c13     
 G  c14     
 G  c15     
 G  c16     
 G  c17     
 G  c18     
 G  c19     
 G  c20     
 G  c21     
 G  c22     
 G  c23     
 G  c24     
 G  c25     
COLUMNS
    MARK0000  'MARKER'                 'INTORG'
    x1        obj1                            1
    x1        c9                            386
    x1        c17                           843
    x2        obj1                            1
    x2        c23                           206
    x3        obj1                            1
    x3        c15                           962
    x3        c22                           566
    x4        obj1                            1
    x4        c10                           420
    x4        c19                           612
    x4        c23                           144
    x5        obj1                            1
    x5        c1                            773
    x5        c2                            581
    x5        c8                            183
    x5        c19                           965
    x5        c23                           927
    x6        obj1                            1
    x6        c15                           397
    x6        c21                           946
    x7        obj1                            1
    x7        c8                            145
    x7        c14                           618
    x7        c24                           883
    x8        obj1                            1
    x8        c11                           295
    x9        obj1                            1
    x9        c13                           509
    x9        c21                           531
    x10       obj1                            1
    x10       c1                            456
    x10       c19                           490
    x10       c20                           645
    x10       c22                           749
    x10       c25                           865
    x11       obj1                            1
    x11       c19                           988
    x12       obj1                            1
    x12       c14                           732
    x13       obj1                            1
    x13       c7                            500
    x13       c19                           479
    x14       obj1                            1
    x14       c1                            625
    x14       c6                            179
    x14       c7                            441
    x14       c9                            279
    x14       c17                           215
    x15       obj1                            1
    x15       c2                            570
    x15       c5                            743
    x15       c7                            745
    x15       c24                           466
    x16       obj1                            1
    x16       c6                            989
    x16       c12                           336
    x16       c13                           236
    x16       c22                           128
    x16       c25                           945
    x17       obj1                            1
    x17       c10                           221
    x18       obj1                            1
    x18       c5                            767
    x18       c14                           652
    x18       c16                           567
    x18       c21                           104
    x19       obj1                            1
    x19       c4                            891
    x19       c6                            945
    x19       c22                           597
    x20       obj1                            1
    x20       c10                           997
    x20       c16                           996
    x20       c22                           283
    x21       obj1                            1
    x21       c12                           459
    x21       c16                           520
    x22       obj1                            1
    x22       c5                            997
    x22       c6                            763
    x22       c16                           786
    x22       c18                           740
    x23       obj1                            1
    x23       c5                            566
    x23       c7                            456
    x23       c9                            993
    x23       c25                           640
    x24       obj1                            1
    x24       c1                            632
    x24       c17                           977
    x24       c23                           198
    x25       obj1                            1
    x25       c13                           905
    x25       c20                           951
    x25       c22                           650
    x26       obj1                            1
    x26       c7                            668
    x26       c11                           933
    x27       obj1                            1
    x27       c1                            570
    x27       c6                            753
    x27       c10                           513
    x27       c14                           124
    x27       c20                           717
    x28       obj1                            1
    x28       c19                           598
    x28       c25                           190
    x29       obj1                            1
    x29       c1                            402
    x29       c2                            363
    x29       c3                            926
    x29       c7                            340
    x29       c8                            805
    x29       c12                           472
    x29       c16                           785
    x29       c25                           567
    x30       obj1                            1
    x30       c23                           937
    x31       obj1                            1
    x31       c17                           283
    x31       c19                           637
    x31       c22                           259
    x32       obj1                            1
    x32       c5                            606
    x32       c20                           951
    x33       obj1                            1
    x34       obj1                            1
    x34       c8                            621
    x34       c25                           646
    x35       obj1                            1
    x35       c3                            421
    x35       c8                            985
    x35       c10                           328
    x36       obj1                            1
    x37       obj1                            1
    x37       c7                            526
    x37       c12                           657
    x37       c17                           477
    x38       obj1                            1
    x38       c6                            691
    x39       obj1                            1
    x39       c10                           503
    x39       c18                           972
    x40       obj1                            1
    x40       c14                           919
    x41       obj1                            1
    x41       c8                            581
    x41       c14                           658
    x41       c23                           542
    x42       obj1                            1
    x42       c11                           907
    x42       c15                           529
    x43       obj1                            1
    x44       obj1                            1
    x45       obj1                            1
    x45       c1                            380
    x45       c4                            159
    x45       c16                           726
    x45       c24                           979
    x46       obj1                            1
    x46       c6                            888
    x46       c12                           326
    x46       c18                           592
    x46       c21                           284
    x47       obj1                            1
    x47       c5                            439
    x47       c21                           813
    x48       obj1                            1
    x48       c3                            578
    x48       c13                           439
    x48       c17                           729
    x48       c18                           531
    x49       obj1                            1
    x49       c4                            799
    x49       c11                           524
    x49       c12                           211
    x49       c14                           239
    x49       c16                           143
    x49       c23                           934
    x50       obj1                            1
    x50       c5                            530
    x50       c11                           348
    x50       c24                           863
    MARK0001  'MARKER'                 'INTEND'
RHS
    rhs       c1                           1919
    rhs       c2                            757
    rhs       c3                            963
    rhs       c4                            925
    rhs       c5                           2324
    rhs       c6                           2604
    rhs       c7                           1838
    rhs       c8                           1660
    rhs       c9                            829
    rhs       c10                          1491
    rhs       c11                          1504
    rhs       c12                          1231
    rhs       c13                          1045
    rhs       c14                          1971
    rhs       c15                           944
    rhs       c16                          2262
    rhs       c17                          1762
    rhs       c18                          1418
    rhs       c19                          2385
    rhs       c20                          1632
    rhs       c21                          1339
    rhs       c22                          1616
    rhs       c23                          1944
    rhs       c24                          1596
    rhs       c25                          1927
BOUNDS
 LI bnd       x1        0
 LI bnd       x2        0
 LI bnd       x3        0
 LI bnd       x4        0
 LI bnd       x5        0
 LI bnd       x6        0
 LI bnd       x7        0
 LI bnd       x8        0
 LI bnd       x9        0
 LI bnd       x10       0
 LI bnd       x11       0
 LI bnd       x12       0
 LI bnd       x13       0
 LI bnd       x14       0
 LI bnd       x15       0
 LI bnd       x16       0
 LI bnd       x17       0
 LI bnd       x18       0
 LI bnd       x19       0
 LI bnd       x20       0
 LI bnd       x21       0
 LI bnd       x22       0
 LI bnd       x23       0
 LI bnd       x24       0
 LI bnd       x25       0
 LI bnd       x26       0
 LI bnd       x27       0
 LI bnd       x28       0
 LI bnd       x29       0
 LI bnd       x30       0
 LI bnd       x31       0
 LI bnd       x32       0
 LI bnd       x33       0
 LI bnd       x34       0
 LI bnd       x35       0
 LI bnd       x36       0
 LI bnd       x37       0
 LI bnd       x38       0
 LI bnd       x39       0
 LI bnd       x40       0
 LI bnd       x41       0
 LI bnd       x42       0
 LI bnd       x43       0
 LI bnd       x44       0
 LI bnd       x45       0
 LI bnd       x46       0
 LI bnd       x47       0
 LI bnd       x48       0
 LI bnd       x49       0
 LI bnd       x50       0
ENDATA
